6 16 4 10
11 1 20 17 14 18 4 1 16 1 10 10 5 19 9 13 
0.21 14.82 7.66 2.05 4.48 6.63 10.06 0.97 12.06 4.98 5.11 4.22 13.3 1.65 8.78 14.02 
7.23 15.97 13.22 13.93 1.6 13.92 9.56 14.87 9.21 12.75 15.23 6.76 1.98 11.08 4.93 14.3 
9.68 9.77 15.25 13.75 11.67 0.43 1.26 5.65 3.72 8.19 10.36 2.53 9.6 10.8 15.84 9.42 
5.29 12.23 2.44 9.24 5.47 9.39 9.97 15.96 10.88 3.97 12.82 5.05 2.39 13.33 2.83 12.08 
8 8 8 8 8 8 8 8 8 8 8 8 8 8 8 8 
15.57 4.71 1.2 1.49 0.53 11.82 3.01 10.96 2.06 9.95 14.88 14.64 13.93 1.48 6.01 15.43 
1 1 1 1 1 1 1 1 1 1 1 1 1 1 1 1 
1 1 1 1 1 1 1 1 1 1 1 1 1 1 1 1 
1 1 1 1 1 1 1 1 1 1 1 1 1 1 1 1 
1 1 1 1 1 1 1 1 1 1 1 1 1 1 1 1 
1 1 1 1 1 1 1 1 1 1 1 1 1 1 1 1 
1 1 1 1 1 1 1 1 1 1 1 1 1 1 1 1 
0.01 0.01 0.01 0.01 0.01 0.01 0.01 0.01 0.01 0.01 0.01 0.01 0.01 0.01 0.01 0.01 
0.02 0.02 0.02 0.02 0.02 0.02 0.02 0.02 0.02 0.02 0.02 0.02 0.02 0.02 0.02 0.02 
0.03 0.03 0.03 0.03 0.03 0.03 0.03 0.03 0.03 0.03 0.03 0.03 0.03 0.03 0.03 0.03 
0.04 0.04 0.04 0.04 0.04 0.04 0.04 0.04 0.04 0.04 0.04 0.04 0.04 0.04 0.04 0.04 
0.05 0.05 0.05 0.05 0.05 0.05 0.05 0.05 0.05 0.05 0.05 0.05 0.05 0.05 0.05 0.05 
1 1 1 1 1 1 1 1 1 1 1 1 1 1 1 1 
